17	4
25	22	18	24	
0	0	0	0	0	3	2	3	4	
7	6	7	0	0	1	17	
3	0	0	1	6	3	5	6	11	
5	2	0	2	0	1	17	
1	0	0	7	0	3	7	17	17	
250	4	0	5	0	3	8	10	15	
125	9	6	3	10	3	9	14	17	
225	0	0	6	7	1	17	
25	0	0	2	3	1	17	
125	0	8	0	0	3	12	13	17	
50	0	9	4	10	1	17	
25	0	6	0	0	1	17	
7	3	4	4	0	2	16	17	
4	0	10	8	7	1	17	
5	3	9	0	4	2	17	17	
7	0	0	8	0	1	17	
0	0	0	0	0	0	
